import "al.lt"
import "tip4p.lt"
import "benzene.lt"

write_once("In Init") {
boundary p p f
units        real
# explanation:  http://lammps.sandia.gov/doc/units.html

# Specify the attributes of the particles in our system (eg. "full")
atom_style   full
# explanation:  http://lammps.sandia.gov/doc/atom_style.html

# Specify the kinds of formulas we want to use to calculate
# the forces in our system (ie. force-field "styles")
bond_style   harmonic
angle_style  harmonic
dihedral_style  opls
improper_style harmonic
pair_style   hybrid lj/cut/tip4p/long @atom:TIP4P/O  @atom:TIP4P/H 1 1 0.1546 8.5 lj/cut/coul/long 8.5 8.5 lj/cut 10
pair_modify  mix geometric
special_bonds lj/coul 0.0 0.0 0.5
# explanation:  http://lammps.sandia.gov/doc/pair_modify.html
kspace_style pppm/tip4p 0.0001
kspace_modify slab 3.0
# explanation:  http://lammps.sandia.gov/doc/kspace_style.html
}

#I have added 6 Angstroms extra in the z
#direction (+3 and -3) for the fixed 
#conditions
write_once("Data Boundary") {
  0 60.5 xlo xhi
  0 60.5 ylo yhi
  -3 231 zlo zhi
}

benzene = new Benzene [10].move(5.90,0,0)
                 [11].move(0,5.45,0)
                 [50].move(0,0,4.39)


#delete benzene[2-5][2-5][3-8] #backup 2
benzene[*][*][*].move(2,2,4.25)

water = new TIP4P [10].move(3.45,0,0)
                 [10].move(0,3.45,0)
                 [10].move(0,0,3.45)

water[*][*][*].move(11.9,11.9,40)


left_wall = new AlCell [15].move(4.05,0,0)
                       [15].move(0,4.05,0)
                       [1].move(0,0,4.04)


right_wall = new AlCell.move(0,0,220)
                       [15].move(4.05,0,0)
                       [15].move(0,4.05,0)
                       [1].move(0,0,4.04)


write_once("In Settings") {
  # --- We must eventually specify the interactions between the atoms ---
  # --- in different molecule types (graphene-water interactions).    ---
  # (See Laurent Joly, J. Chem. Phys. 135(21):214705 (2011) for details

  pair_coeff @atom:OPLSAA/90 @atom:AlCell/Al lj/cut/coul/long 1.19 3.50
  pair_coeff @atom:OPLSAA/90 @atom:TIP4P/O lj/cut/coul/long 0.11 3.34
  pair_coeff @atom:OPLSAA/90 @atom:TIP4P/H lj/cut/coul/long 0 3.28

  pair_coeff @atom:OPLSAA/91 @atom:AlCell/Al lj/cut 1.12 2.91
  pair_coeff @atom:OPLSAA/91 @atom:TIP4P/O lj/cut/coul/long 0.07 2.76
  pair_coeff @atom:OPLSAA/91 @atom:TIP4P/H lj/cut/coul/long 0 3.28


  pair_coeff @atom:AlCell/Al @atom:TIP4P/H lj/cut 0   3.28
  pair_coeff @atom:AlCell/Al @atom:TIP4P/O lj/cut 0.05   3.50


############## LEFT WALL ############################
  region left_wall block INF INF INF INF 0.0 4.1 
  group tmpleft region left_wall
  group gleftwall intersect tmpleft gal


  region left_wall1 block INF INF INF INF 0.0 1.9
  group tmpleft1 region left_wall1
  group gleftwall1 intersect tmpleft1 gal

  region left_wall2 block INF INF INF INF 2.0 4.1 
  group tmpleft2 region left_wall2
  group gleftwall2 intersect tmpleft2 gal

############## RIGHT WALL ############################

  region right_wall block INF INF INF INF 220 224.1
  group tmpright region right_wall
  group grightwall intersect tmpright gal

  region right_wall1 block INF INF INF INF 220 221.9
  group tmpright1 region right_wall1
  group grightwall1 intersect tmpright1 gal

  region right_wall2 block INF INF INF INF 222 225 
  group tmpright2 region right_wall2
  group grightwall2 intersect tmpright2 gal
#####################################################


  fix ftetherleft  gleftwall  spring/self 500
  fix ftetherright  grightwall  spring/self 500

  velocity  all create  300  9834157 mom yes rot yes dist  gaussian

  fix tempinita grightwall1 temp/rescale 1 400 400 0.02 1
  fix tempinitb grightwall2 temp/rescale 1 400 400 0.02 1

  fix tempinitc gleftwall1 temp/rescale 1 300 300 0.02 1
  fix tempinitd gleftwall2 temp/rescale 1 300 300 0.02 1


  fix tempinit_wat gtip4p temp/rescale 1 310 310 0.02 1
  fix tempinit_ben gbenzene temp/rescale 1 340 340 0.02 1

  fix M gtip4p momentum 10 linear 1 1 1 angular

  delete_atoms overlap 0.6 gbenzene gtip4p mol yes
}
